WARNING: for repeatability, setting FPU to use double precision
============================[ Problem Statistics ]=============================
|                                                                             |
|  Number of variables:            40                                         |
|  Number of clauses:             190                                         |
|  Parse time:                   0.00 s                                       |
|                                                                             |
============================[ Search Statistics ]==============================
| Conflicts |          ORIGINAL         |          LEARNT          | Progress |
|           |    Vars  Clauses Literals |    Limit  Clauses Lit/Cl |          |
===============================================================================
===============================================================================
restarts              : 1
conflicts             : 30             (8646 /sec)
decisions             : 39             (0.00 % random) (11239 /sec)
propagations          : 573            (165130 /sec)
conflict literals     : 107            (13.01 % deleted)
Memory used           : 11.00 MB
CPU time              : 0.00347 s

UNSATISFIABLE
